NAME: random-75-20917
TYPE: TSP
COMMENT: size=75 seed=20917
DIMENSION: 152
EDGE_WEIGHT_TYPE: EUC_2D
NODE_COORD_SECTION
+0 19 436
-0 19 436
+1 289 811
-1 200 373
+2 815 303
-2 893 297
+3 657 733
-3 733 138
+4 273 326
-4 987 698
+5 247 818
-5 760 702
+6 267 974
-6 602 260
+7 725 293
-7 422 968
+8 121 15
-8 558 806
+9 639 446
-9 280 130
+10 690 80
-10 976 333
+11 76 725
-11 559 712
+12 410 553
-12 213 477
+13 705 398
-13 998 476
+14 836 660
-14 11 949
+15 540 931
-15 480 577
+16 378 397
-16 707 777
+17 948 887
-17 235 932
+18 930 163
-18 445 480
+19 517 103
-19 309 303
+20 650 764
-20 636 617
+21 922 119
-21 132 537
+22 32 124
-22 977 462
+23 811 602
-23 76 357
+24 79 182
-24 95 912
+25 431 360
-25 178 966
+26 524 107
-26 708 972
+27 785 346
-27 452 983
+28 965 218
-28 652 302
+29 587 733
-29 653 788
+30 179 48
-30 584 81
+31 601 647
-31 422 364
+32 901 427
-32 23 272
+33 26 887
-33 49 687
+34 224 909
-34 853 375
+35 109 379
-35 842 863
+36 23 580
-36 878 338
+37 564 456
-37 542 225
+38 623 357
-38 299 677
+39 463 486
-39 591 883
+40 743 647
-40 0 693
+41 575 778
-41 853 358
+42 376 124
-42 874 623
+43 102 122
-43 506 303
+44 779 381
-44 784 18
+45 475 369
-45 184 174
+46 889 251
-46 727 428
+47 834 258
-47 569 455
+48 969 355
-48 702 482
+49 861 689
-49 360 634
+50 831 379
-50 850 71
+51 82 358
-51 820 541
+52 12 29
-52 340 854
+53 537 762
-53 300 544
+54 980 343
-54 279 972
+55 344 249
-55 338 731
+56 805 694
-56 103 425
+57 274 86
-57 807 968
+58 279 911
-58 242 495
+59 543 892
-59 193 218
+60 174 776
-60 22 818
+61 285 6
-61 886 872
+62 344 403
-62 184 400
+63 64 438
-63 595 694
+64 226 282
-64 356 573
+65 507 577
-65 134 337
+66 833 795
-66 487 918
+67 164 714
-67 37 532
+68 762 495
-68 922 622
+69 113 356
-69 458 603
+70 113 112
-70 254 647
+71 880 915
-71 378 36
+72 189 730
-72 731 840
+73 493 698
-73 657 744
+74 758 702
-74 659 664
+75 340 805
-75 122 519
PRECEDENCE_SECTION
+0 -0
+1 -1
+2 -2
+3 -3
+4 -4
+5 -5
+6 -6
+7 -7
+8 -8
+9 -9
+10 -10
+11 -11
+12 -12
+13 -13
+14 -14
+15 -15
+16 -16
+17 -17
+18 -18
+19 -19
+20 -20
+21 -21
+22 -22
+23 -23
+24 -24
+25 -25
+26 -26
+27 -27
+28 -28
+29 -29
+30 -30
+31 -31
+32 -32
+33 -33
+34 -34
+35 -35
+36 -36
+37 -37
+38 -38
+39 -39
+40 -40
+41 -41
+42 -42
+43 -43
+44 -44
+45 -45
+46 -46
+47 -47
+48 -48
+49 -49
+50 -50
+51 -51
+52 -52
+53 -53
+54 -54
+55 -55
+56 -56
+57 -57
+58 -58
+59 -59
+60 -60
+61 -61
+62 -62
+63 -63
+64 -64
+65 -65
+66 -66
+67 -67
+68 -68
+69 -69
+70 -70
+71 -71
+72 -72
+73 -73
+74 -74
+75 -75
EOF
